; AETHERIS OMEGA v2.0 - L0-L5 Formal Verification
; Audit Epoch #982,441 - 2026-06-18
; Spec: CPU < 95% AND Zombies Penned = 12

(set-logic QF_LIA)
(declare-const cpu_load Int)
(declare-const zombies_penned Int)

(assert (<= cpu_load 95)) ; A-048: Nominal
(assert (= zombies_penned 12)) ; Observed

; Check if spec can be violated. If UNSAT = spec holds
(assert (not (and (<= cpu_load 95) (= zombies_penned 12))))
(check-sat)
; Expected result: unsat
